
******************************************************************************
This program contains Ipopt, a library for large-scale nonlinear optimization.
 Ipopt is released as open source code under the Eclipse Public License (EPL).
         For more information visit http://projects.coin-or.org/Ipopt
******************************************************************************

This is Ipopt version 3.12.6, running with linear solver ma57.

Number of nonzeros in equality constraint Jacobian...:       24
Number of nonzeros in inequality constraint Jacobian.:        4
Number of nonzeros in Lagrangian Hessian.............:      320

Reallocating memory for MA57: lfact (2169)
Total number of variables............................:       27
                     variables with only lower bounds:        3
                variables with lower and upper bounds:       24
                     variables with only upper bounds:        0
Total number of equality constraints.................:        8
Total number of inequality constraints...............:        2
        inequality constraints with only lower bounds:        0
   inequality constraints with lower and upper bounds:        0
        inequality constraints with only upper bounds:        2

iter    objective    inf_pr   inf_du lg(mu)  ||d||  lg(rg) alpha_du alpha_pr  ls
   0  5.8693439e+08 6.19e+02 4.00e+01  -1.0 0.00e+00    -  0.00e+00 0.00e+00   0
   1  1.9076791e+08 3.30e+02 2.13e+01  -1.0 6.19e+02    -  4.88e-01 4.67e-01f  1
   2  3.6659642e+07 9.59e+01 6.70e+00  -1.0 3.14e+02    -  1.02e-02 7.09e-01f  1
   3  2.1945828e+07 4.49e+01 2.90e+00  -1.0 9.73e+01    -  9.85e-01 5.32e-01h  1
   4  8.1605517e+06 6.94e-17 2.61e-01  -1.0 8.89e+02    -  7.70e-01 1.00e+00f  1
   5  9.6732711e+05 3.64e-12 1.41e+00  -1.0 1.50e+03    -  7.36e-01 1.00e+00f  1
   6  2.2646742e+05 4.16e-17 6.30e+00  -1.0 2.04e+03    -  5.62e-01 1.00e+00f  1
   7  1.8695910e+05 8.33e-17 4.21e+00  -1.0 1.52e+03    -  6.10e-01 1.00e+00f  1
   8  3.9913662e+05 1.39e-16 5.71e+00  -1.0 1.92e+03    -  6.34e-01 1.00e+00f  1
   9  1.3426064e+05 3.64e-12 2.22e+00  -1.0 4.41e+03    -  7.01e-01 1.00e+00f  1
iter    objective    inf_pr   inf_du lg(mu)  ||d||  lg(rg) alpha_du alpha_pr  ls
  10  1.6779609e+05 3.64e-12 3.11e+00  -1.0 9.25e+03    -  8.56e-01 1.00e+00f  1
  11  7.7904910e+04 3.64e-12 4.42e-01  -1.0 1.43e+04    -  1.00e+00 1.00e+00f  1
  12  7.5882376e+04 3.64e-12 8.35e-03  -1.7 1.19e+03    -  1.00e+00 1.00e+00f  1
  13  7.3224755e+04 1.11e-16 6.01e-02  -3.8 1.71e+02    -  9.71e-01 1.00e+00f  1
  14  6.0949294e+04 8.33e-17 6.16e-01  -3.8 1.09e+03    -  1.00e+00 5.00e-01f  2
  15  3.8782286e+04 7.28e-12 5.98e-04  -3.8 1.20e-01  -4.0 1.00e+00 1.00e+00f  1
  16  3.8013122e+04 3.64e-12 1.23e-01  -5.7 9.60e+03    -  4.38e-01 2.62e-02f  6
  17  3.4988206e+04 3.64e-12 1.01e-01  -5.7 2.68e+03    -  6.61e-01 2.50e-01f  3
  18  2.6561325e+04 6.94e-17 3.40e-02  -5.7 4.34e-01  -4.5 5.78e-01 6.61e-01f  1
  19  2.5366531e+04 7.28e-12 2.56e-02  -5.7 4.37e-01  -5.0 7.87e-01 2.46e-01f  1
iter    objective    inf_pr   inf_du lg(mu)  ||d||  lg(rg) alpha_du alpha_pr  ls
  20  2.3926139e+04 1.11e-16 9.62e-06  -5.7 4.84e-02  -5.4 9.85e-01 1.00e+00f  1
  21  2.3519536e+04 1.11e-16 3.78e-05  -8.6 5.80e-01  -5.0 3.78e-01 7.25e-01f  1
  22  2.3302334e+04 1.67e-16 3.19e-01  -8.6 1.77e+04    -  9.67e-02 2.30e-02f  5
  23  2.2354183e+04 1.11e-16 4.45e-02  -8.6 8.37e-02  -5.5 9.48e-01 8.60e-01f  1
  24  2.1922346e+04 1.11e-16 4.35e-02  -8.6 1.69e+04    -  3.87e-02 3.83e-02f  3
  25  2.1286650e+04 7.28e-12 3.88e-06  -8.6 1.48e-01  -6.0 1.00e+00 1.00e+00f  1
  26  2.0928545e+04 3.64e-12 3.68e-01  -8.6 1.37e+04    -  7.98e-02 3.21e-02f  3
  27  1.9778906e+04 5.55e-17 3.56e-06  -8.6 3.93e-01  -6.4 1.00e+00 1.00e+00f  1
  28  1.8828380e+04 8.33e-17 2.97e-01  -8.6 1.59e+04    -  9.53e-02 4.08e-02f  2
  29  1.8031755e+04 7.28e-12 7.72e-06  -8.6 1.14e+00  -6.9 1.00e+00 1.00e+00f  1
iter    objective    inf_pr   inf_du lg(mu)  ||d||  lg(rg) alpha_du alpha_pr  ls
  30  1.6874270e+04 3.64e-12 2.39e-02  -8.6 3.02e+04    -  6.43e-02 2.68e-02f  1
  31  1.6872396e+04 7.28e-12 2.33e-02  -8.6 3.04e+00  -7.4 1.00e+00 2.75e-02f  1
  32  1.6807240e+04 3.64e-12 7.79e-03  -8.6 9.57e+00  -7.9 3.75e-02 6.66e-01f  1
  33  1.6602517e+04 1.51e-16 1.10e-03  -8.6 2.77e+01  -8.3 1.00e+00 1.00e+00f  1
  34  1.6379227e+04 7.28e-12 2.55e-01  -8.6 8.29e+03    -  5.36e-01 4.49e-02f  1
  35  1.5682853e+04 1.07e-16 2.11e-01  -8.6 2.11e+03    -  1.11e-01 1.76e-01f  1
  36  1.5306802e+04 7.28e-12 1.30e-01  -8.6 7.46e+00  -7.9 8.88e-01 3.81e-01f  1
  37  1.4963041e+04 7.28e-12 4.70e-04  -8.6 2.04e+01  -8.4 2.33e-01 1.00e+00f  1
  38  1.4628060e+04 7.28e-12 1.19e-01  -8.6 7.08e+03    -  5.70e-01 3.63e-02f  5
  39  1.4414636e+04 7.28e-12 9.96e-02  -8.6 1.67e+03    -  5.79e-01 2.11e-01f  2
iter    objective    inf_pr   inf_du lg(mu)  ||d||  lg(rg) alpha_du alpha_pr  ls
  40  1.4227558e+04 7.28e-12 8.03e-02  -8.6 3.50e+01  -8.9 1.00e+00 1.94e-01f  1
  41  1.3708432e+04 3.64e-12 2.46e-02  -8.6 7.66e+01  -9.4 1.00e+00 7.67e-01f  1
  42  1.3214270e+04 3.64e-12 8.13e-02  -8.6 2.27e+02  -9.8 1.00e+00 9.33e-01f  1
  43  1.3010613e+04 7.28e-12 7.00e-02  -8.6 9.90e+02    -  7.79e-01 2.91e-01f  1
  44  1.2791526e+04 1.11e-16 1.28e-02  -8.6 8.21e+01  -9.4 1.00e+00 9.73e-01f  1
  45  1.2684043e+04 3.64e-12 2.19e-01  -8.6 1.38e+03    -  7.91e-01 2.49e-01f  2
  46  1.2222721e+04 6.18e-17 1.81e-02  -8.6 4.08e+02    -  1.00e+00 1.00e+00f  1
  47  1.2134623e+04 7.28e-12 4.74e-03  -8.6 3.56e+01  -9.0 1.00e+00 8.18e-01f  1
  48  1.1951856e+04 6.13e-17 6.82e-02  -8.6 2.23e+03    -  6.43e-01 8.58e-02f  4
  49  1.1771814e+04 1.67e-16 1.55e-01  -8.6 3.00e+02    -  1.00e+00 1.00e+00f  1
iter    objective    inf_pr   inf_du lg(mu)  ||d||  lg(rg) alpha_du alpha_pr  ls
  50  1.1476764e+04 3.64e-12 2.82e-02  -8.6 1.31e+02    -  1.00e+00 1.00e+00f  1
  51  1.1380240e+04 8.33e-17 1.62e-01  -8.6 5.87e+02    -  1.00e+00 5.00e-01f  2
  52  1.1104441e+04 1.11e-16 2.07e-02  -8.6 1.13e+02    -  1.00e+00 1.00e+00f  1
  53  1.1099746e+04 1.11e-16 1.96e-01  -8.6 6.62e+02    -  1.00e+00 5.00e-01f  2
  54  1.0781269e+04 7.28e-12 1.03e-02  -8.6 8.19e+01    -  1.00e+00 1.00e+00f  1
  55  1.0685671e+04 5.55e-17 9.09e-02  -8.6 8.91e+02    -  4.25e-01 2.50e-01f  3
  56  1.0550789e+04 1.10e-16 6.35e-02  -8.6 1.97e+02    -  1.00e+00 1.00e+00f  1
  57  1.0418630e+04 7.28e-12 1.32e-01  -8.6 2.83e+02    -  7.18e-01 1.00e+00f  1
  58  1.0151058e+04 5.47e-17 5.58e-02  -8.6 6.84e+02    -  1.00e+00 1.00e+00f  1
  59  9.9795483e+03 5.55e-17 1.37e-01  -8.6 1.28e+03    -  9.56e-01 5.00e-01f  2
iter    objective    inf_pr   inf_du lg(mu)  ||d||  lg(rg) alpha_du alpha_pr  ls
  60  9.6655209e+03 3.64e-12 6.35e-02  -8.6 5.09e+02    -  1.00e+00 1.00e+00f  1
  61  9.4702624e+03 3.64e-12 1.12e-01  -8.6 1.09e+03    -  3.69e-01 5.00e-01f  2
  62  9.3567769e+03 3.64e-12 8.78e-02  -8.6 1.04e+03    -  1.00e+00 2.93e-01f  1
  63  9.1173102e+03 4.16e-17 1.65e-01  -8.6 9.57e+02    -  5.31e-01 1.00e+00f  1
  64  8.8803198e+03 7.28e-12 6.19e-03  -8.6 6.53e+01  -9.5 1.00e+00 1.00e+00f  1
  65  8.7547369e+03 3.64e-12 7.79e-02  -8.6 2.03e+04    -  3.58e-02 4.73e-02f  1
  66  8.6851459e+03 8.33e-17 5.51e-02  -8.6 3.53e+01  -9.0 4.59e-03 2.94e-01f  1
  67  8.6121027e+03 7.28e-12 2.75e-04  -8.6 1.42e+01  -8.6 1.00e+00 1.00e+00f  1
  68  8.5648532e+03 3.64e-12 2.96e-03  -8.6 4.35e+01  -9.1 1.00e+00 1.00e+00h  1
  69  8.4311295e+03 7.28e-12 2.53e-02  -8.6 1.27e+02  -9.6 1.00e+00 1.00e+00h  1
iter    objective    inf_pr   inf_du lg(mu)  ||d||  lg(rg) alpha_du alpha_pr  ls
  70  8.3604478e+03 1.28e-16 3.46e-02  -8.6 1.28e+04    -  7.98e-02 5.79e-02f  2
  71  8.2740364e+03 9.71e-17 3.22e-03  -8.6 4.60e+01  -9.1 1.00e+00 1.00e+00f  1
  72  8.1263091e+03 1.11e-16 3.11e-02  -8.6 1.41e+02  -9.6 1.00e+00 1.00e+00f  1
  73  8.0999990e+03 7.28e-12 5.63e-02  -8.6 1.06e+04    -  2.56e-01 1.26e-01f  2
  74  7.9357972e+03 7.28e-12 5.11e-05  -8.6 6.76e+00  -8.3 1.00e+00 1.00e+00f  1
  75  7.9131899e+03 9.71e-17 6.46e-04  -8.6 2.04e+01  -8.8 1.00e+00 1.00e+00h  1
  76  7.8462636e+03 8.33e-17 5.70e-03  -8.6 6.08e+01  -9.2 1.00e+00 1.00e+00h  1
  77  7.6677049e+03 7.28e-12 4.60e-02  -8.6 1.73e+02  -9.7 1.00e+00 1.00e+00f  1
  78  7.4318071e+03 1.35e-16 1.25e-01  -8.6 2.85e+02 -10.2 1.00e+00 1.00e+00f  1
  79  7.3029889e+03 3.64e-12 6.03e-04  -8.6 2.21e+01  -8.9 1.00e+00 1.00e+00f  1
iter    objective    inf_pr   inf_du lg(mu)  ||d||  lg(rg) alpha_du alpha_pr  ls
  80  7.2246065e+03 7.28e-12 7.57e-03  -8.6 7.17e+01  -9.3 1.00e+00 9.82e-01h  1
  81  7.0321396e+03 7.28e-12 5.44e-02  -8.6 1.89e+02  -9.8 1.00e+00 1.00e+00f  1
  82  6.9410696e+03 1.37e-16 7.31e-03  -8.6 6.44e+01  -9.4 1.00e+00 9.72e-01h  1
  83  6.7459728e+03 7.28e-12 5.80e-02  -8.6 1.96e+02  -9.9 1.00e+00 1.00e+00f  1
  84  6.6418179e+03 7.73e-17 6.22e-03  -8.6 6.53e+01  -9.4 1.00e+00 1.00e+00h  1
  85  6.4688913e+03 9.71e-17 6.21e-02  -8.6 2.03e+02  -9.9 1.00e+00 1.00e+00f  1
  86  6.3673615e+03 4.86e-17 1.13e-04  -8.6 9.77e+00  -8.6 1.00e+00 1.00e+00f  1
  87  6.3293288e+03 5.82e-17 1.31e-03  -8.6 2.96e+01  -9.1 1.00e+00 1.00e+00h  1
  88  6.2182072e+03 7.28e-12 1.10e-02  -8.6 8.59e+01  -9.5 1.00e+00 1.00e+00h  1
  89  5.9591118e+03 7.28e-12 6.97e-02  -8.6 2.16e+02 -10.0 1.00e+00 1.00e+00f  1
iter    objective    inf_pr   inf_du lg(mu)  ||d||  lg(rg) alpha_du alpha_pr  ls
  90  5.8240484e+03 5.16e-17 6.46e-03  -8.6 6.72e+01  -9.6 1.00e+00 1.00e+00h  1
  91  5.7134577e+03 7.28e-12 1.32e-02  -8.6 3.52e+02 -10.1 1.00e+00 3.44e-01f  1
  92  5.5808232e+03 6.94e-17 3.56e-02  -8.6 6.03e+02 -10.5 5.61e-01 3.50e-01f  1
  93  5.5049856e+03 6.93e-17 9.14e-03  -8.6 4.43e+01  -9.2 4.52e-01 1.00e+00f  1
  94  5.4096421e+03 6.94e-17 1.03e-02  -8.6 1.08e+02  -9.7 1.00e+00 9.24e-01f  1
  95  5.3683630e+03 7.28e-12 1.47e-03  -8.6 3.18e+01  -9.3 1.45e-01 1.00e+00f  1
  96  5.2841884e+03 7.28e-12 1.55e-01  -8.6 1.19e+04    -  2.73e-01 2.50e-01f  3
  97  5.1301427e+03 3.64e-12 2.48e-03  -8.6 4.39e+01  -9.7 7.82e-01 1.00e+00f  1
  98  5.0486944e+03 7.29e-17 6.39e-02  -8.6 1.07e+04    -  7.74e-02 1.25e-01f  4
  99  5.0208347e+03 7.28e-12 5.72e-02  -8.6 9.42e+03    -  1.08e-02 1.25e-01f  4
iter    objective    inf_pr   inf_du lg(mu)  ||d||  lg(rg) alpha_du alpha_pr  ls
 100  4.9896895e+03 8.33e-17 1.17e-05  -8.6 3.50e+00  -8.4 1.00e+00 1.00e+00h  1
 101  4.9847298e+03 7.28e-12 1.64e-04  -8.6 1.07e+01  -8.9 1.00e+00 1.00e+00h  1
 102  4.9693117e+03 6.94e-17 1.52e-03  -8.6 3.25e+01  -9.4 1.00e+00 1.00e+00h  1
 103  4.9192024e+03 3.64e-12 1.50e-02  -8.6 1.02e+02  -9.8 1.00e+00 1.00e+00h  1
 104  4.8503412e+03 3.64e-12 1.13e-01  -8.6 2.79e+02 -10.3 1.00e+00 1.00e+00f  1
 105  4.7479941e+03 3.64e-12 1.31e-04  -8.6 2.10e+00  -8.1 1.00e+00 1.00e+00f  1
 106  4.7435728e+03 8.56e-17 5.80e-05  -8.6 6.37e+00  -8.6 1.00e+00 1.00e+00h  1
 107  4.7300123e+03 3.64e-12 5.34e-04  -8.6 1.93e+01  -9.0 1.00e+00 1.00e+00h  1
 108  4.6874592e+03 9.59e-17 5.13e-03  -8.6 5.99e+01  -9.5 1.00e+00 1.00e+00h  1
 109  4.5727212e+03 8.03e-17 4.86e-02  -8.6 1.84e+02 -10.0 1.00e+00 1.00e+00f  1
iter    objective    inf_pr   inf_du lg(mu)  ||d||  lg(rg) alpha_du alpha_pr  ls
 110  4.5065509e+03 7.63e-17 5.33e-03  -8.6 6.20e+01  -9.6 1.00e+00 1.00e+00h  1
 111  4.4348542e+03 5.55e-17 6.63e-02  -8.6 2.16e+02 -10.1 1.00e+00 1.00e+00f  1
 112  4.3205749e+03 6.94e-17 1.61e-06  -8.6 1.30e+00  -7.8 1.00e+00 1.00e+00f  1
 113  4.3169254e+03 7.28e-12 2.16e-05  -8.6 3.91e+00  -8.3 1.00e+00 1.00e+00h  1
 114  4.3059508e+03 7.28e-12 1.94e-04  -8.6 1.17e+01  -8.8 1.00e+00 1.00e+00h  1
 115  4.2730522e+03 7.28e-12 1.75e-03  -8.6 3.52e+01  -9.2 1.00e+00 1.00e+00h  1
 116  4.1859756e+03 7.28e-12 1.53e-02  -8.6 1.04e+02  -9.7 1.00e+00 1.00e+00h  1
 117  4.1448003e+03 4.19e-17 2.00e-03  -8.6 3.80e+01  -9.3 1.00e+00 1.00e+00h  1
 118  4.0554103e+03 7.28e-12 1.83e-02  -8.6 1.14e+02  -9.8 1.00e+00 1.00e+00f  1
 119  4.0028105e+03 7.28e-12 2.32e-03  -8.6 4.10e+01  -9.4 1.00e+00 1.00e+00h  1
iter    objective    inf_pr   inf_du lg(mu)  ||d||  lg(rg) alpha_du alpha_pr  ls
 120  3.9068420e+03 7.28e-12 1.27e-02  -8.6 9.12e+04    -  2.25e-02 1.15e-02f  1
 121  3.9053147e+03 7.28e-12 1.26e-02  -8.6 2.14e+02  -9.8 1.91e-03 1.00e-02f  1
 122  3.8885562e+03 4.16e-17 1.40e-04  -8.6 5.94e+00  -8.5 4.13e-03 1.00e+00f  1
 123  3.8856338e+03 3.64e-12 1.22e-04  -8.6 1.64e-01  -5.4 1.59e-01 1.30e-01h  1
 124  3.8810151e+03 1.04e-16 3.23e-04  -8.6 5.94e-02  -5.8 3.20e-03 7.49e-01f  1
 125  3.8429694e+03 1.39e-16 5.67e-03  -8.6 2.03e+04    -  2.49e-04 2.30e-02f  1
 126  3.8387324e+03 9.71e-17 5.67e-03  -8.6 3.84e+04    -  7.16e-04 1.12e-03f  1
 127  3.7726853e+03 1.39e-16 1.52e-01  -8.6 1.62e+04    -  1.02e-03 2.14e-01f  3
 128  3.6932081e+03 8.33e-17 8.48e-02  -8.6 6.13e-02  -6.3 2.38e-01 4.43e-01f  1
 129  3.6826586e+03 7.28e-12 8.21e-02  -8.6 1.02e+04    -  3.35e-03 3.34e-02f  1
iter    objective    inf_pr   inf_du lg(mu)  ||d||  lg(rg) alpha_du alpha_pr  ls
 130  3.6798867e+03 7.28e-12 8.11e-02  -8.6 9.30e+03    -  5.53e-04 1.21e-02f  1
 131  3.6684785e+03 7.28e-12 7.75e-02  -8.6 9.35e+03    -  5.44e-03 4.62e-02f  1
 132  3.6610759e+03 7.28e-12 7.53e-02  -8.6 8.95e+03    -  1.89e-02 2.94e-02f  1
 133  3.5446293e+03 6.94e-17 7.18e-02  -8.6 8.49e+03    -  1.74e-02 1.00e+00f  1
 134  3.5330550e+03 6.94e-17 6.50e-02  -8.6 9.15e-02  -6.8 9.63e-01 9.48e-02h  1
 135  3.5254971e+03 6.94e-17 5.80e-02  -8.6 2.73e-01  -7.3 2.20e-02 1.07e-01f  1
 136  3.4950779e+03 5.55e-17 1.39e-06  -8.6 8.17e-01  -7.7 1.00e+00 1.00e+00f  1
 137  3.4936097e+03 3.64e-12 1.69e-01  -8.6 4.18e+03    -  4.43e-01 2.48e-01f  2
 138  3.3417968e+03 9.71e-17 6.49e-03  -8.6 4.57e+02    -  9.41e-01 1.00e+00f  1
 139  3.3074249e+03 8.67e-17 7.25e-02  -8.6 9.52e+02    -  1.00e+00 3.77e-01f  1
iter    objective    inf_pr   inf_du lg(mu)  ||d||  lg(rg) alpha_du alpha_pr  ls
 140  3.2704156e+03 3.64e-12 9.59e-03  -8.6 8.52e+01    -  1.00e+00 1.00e+00f  1
 141  3.2550140e+03 5.55e-17 2.54e-02  -8.6 2.26e+02    -  1.00e+00 6.06e-01h  1
 142  3.2476894e+03 9.02e-17 7.00e-03  -8.6 7.24e+01    -  1.00e+00 1.00e+00f  1
 143  3.2459800e+03 2.13e-17 4.48e-03  -8.6 5.77e+01    -  1.00e+00 1.00e+00h  1
 144  3.2458131e+03 3.64e-12 2.51e-04  -8.6 1.37e+01    -  1.00e+00 1.00e+00h  1
 145  3.2458099e+03 3.64e-12 7.91e-06  -8.6 2.43e+00    -  1.00e+00 1.00e+00h  1
 146  3.2458098e+03 1.11e-16 7.91e-10  -8.6 2.44e-02    -  1.00e+00 1.00e+00h  1
In iteration 146, 1 Slack too small, adjusting variable bound
 147  3.2452478e+03 6.94e-17 9.32e-07 -12.5 3.29e+02    -  9.90e-01 1.00e+00h  1
 148  3.2452412e+03 1.82e-12 4.64e-05 -12.5 1.49e+02    -  4.64e-01 1.00e+00h  1
 149  3.2452407e+03 5.55e-17 1.53e-09 -12.5 4.40e+01    -  1.00e+00 1.00e+00h  1
iter    objective    inf_pr   inf_du lg(mu)  ||d||  lg(rg) alpha_du alpha_pr  ls
 150  3.2452406e+03 1.11e-16 2.03e-10 -12.5 1.60e+01    -  1.00e+00 1.00e+00h  1
 151  3.2452406e+03 1.11e-16 3.17e-13 -12.5 8.23e-01    -  1.00e+00 1.00e+00h  1
 152  3.2452406e+03 7.63e-17 4.79e-13 -12.5 2.20e-02    -  1.00e+00 1.00e+00h  1
 153  3.2452406e+03 6.94e-17 1.11e-13 -12.5 2.38e-04    -  1.00e+00 1.00e+00h  1
 154  3.2452406e+03 6.94e-17 1.11e-13 -12.5 5.51e-10    -  1.00e+00 6.25e-02h  5
 155  3.2452406e+03 6.94e-17 1.11e-13 -12.5 4.88e-10    -  1.00e+00 2.50e-01h  3
 156  3.2452406e+03 6.94e-17 1.11e-13 -12.5 5.55e-10    -  1.00e+00 9.77e-04h 11
 157  3.2452406e+03 6.94e-17 1.11e-13 -12.5 5.55e-10    -  1.00e+00 3.05e-05h 16

Number of Iterations....: 157

                                   (scaled)                 (unscaled)
Objective...............:   1.0899504987791337e-04    3.2452406059275709e+03
Dual infeasibility......:   1.1107710196291702e-13    3.3072320447817052e-06
Constraint violation....:   6.9388939039072284e-17    6.9388939039072284e-17
Complementarity.........:   3.0532839162225231e-13    9.0909091352769428e-06
Overall NLP error.......:   3.0532839162225231e-13    9.0909091352769428e-06


Number of objective function evaluations             = 280
Number of objective gradient evaluations             = 159
Number of equality constraint evaluations            = 280
Number of inequality constraint evaluations          = 280
Number of equality constraint Jacobian evaluations   = 159
Number of inequality constraint Jacobian evaluations = 159
Number of Lagrangian Hessian evaluations             = 158
Total CPU secs in IPOPT (w/o function evaluations)   =      0.043
Total CPU secs in NLP function evaluations           =      0.010

EXIT: Solved To Acceptable Level.

************************ CUTEst statistics ************************


 Package used            :  IPOPT
 Problem                 :  ANTWERP   
 # variables             =              27
 # constraints           =              10
 # objective functions   =        0.4400000E+03
 # objective gradients   =        0.1600000E+03
 # objective Hessians    =        0.1590000E+03
 # Hessian-vector prdct  =        0.0000000E+00
 # constraints functions =        0.4410000E+03
 # constraints gradients =        0.1610000E+03
 # constraints Hessians  =        0.1590000E+03
 Exit code               =               1
 Final f                 =   0.3245241E+04
 Set up time             =            0.00 seconds
 Solve time              =            0.26 seconds


******************************************************************

System Time =       0.0659999996 s.
